outputs/case_427.model.txt
broker_exercise_due_care = False
agent_rules_complied = False
bank_approved_by_authority = False
is_notary = False
is_agent = False
bank_is_broker = False
is_broker = False
has_license = False
guarantee_deposit_paid = False
broker_fee_disclosed = False
related_insurance_purchased = False
broker_fulfill_fiduciary_duty = False
bank_is_agent = False
broker_provide_written_report = False
approved_by_authority = False
insurance_type = 1
broker_rules_complied = False
broker_duties_ok = False
related_insurance_type_ok = False
compliance_all = False
broker_report_and_fee_ok = False
bank_business_compliance = True
authority_suspension_or_revocation = False
penalty = False
illegal_non_insurance_business = False
bank_permission_ok = False
illegal_operation = False
business_allowed = False
license_required = False
guarantee_and_insurance_ok = False
not_authorized_insurance_business = False